
******************************************************************************
This program contains Ipopt, a library for large-scale nonlinear optimization.
 Ipopt is released as open source code under the Eclipse Public License (EPL).
         For more information visit http://projects.coin-or.org/Ipopt

This version of Ipopt was compiled from source code available at
    https://github.com/IDAES/Ipopt as part of the Institute for the Design of
    Advanced Energy Systems Process Systems Engineering Framework (IDAES PSE
    Framework) Copyright (c) 2018-2019. See https://github.com/IDAES/idaes-pse.

This version of Ipopt was compiled using HSL, a collection of Fortran codes
    for large-scale scientific computation.  All technical papers, sales and
    publicity material resulting from use of the HSL codes within IPOPT must
    contain the following acknowledgement:
        HSL, a collection of Fortran codes for large-scale scientific
        computation. See http://www.hsl.rl.ac.uk.
******************************************************************************

This is Ipopt version 3.13.2, running with linear solver ma27.

Number of nonzeros in equality constraint Jacobian...:     1210
Number of nonzeros in inequality constraint Jacobian.:        0
Number of nonzeros in Lagrangian Hessian.............:     1376

Total number of variables............................:      480
                     variables with only lower bounds:      128
                variables with lower and upper bounds:      288
                     variables with only upper bounds:        0
Total number of equality constraints.................:      477
Total number of inequality constraints...............:        0
        inequality constraints with only lower bounds:        0
   inequality constraints with lower and upper bounds:        0
        inequality constraints with only upper bounds:        0

iter    objective    inf_pr   inf_du lg(mu)  ||d||  lg(rg) alpha_du alpha_pr  ls
   0  0.0000000e+00 1.29e+00 7.11e-15  -1.0 0.00e+00    -  0.00e+00 0.00e+00   0
   1  4.1757398e+00 1.70e+00 5.83e+05  -1.0 1.66e+06    -  7.54e-02 1.11e-01h  3
   2  7.8913180e+00 1.63e+00 6.49e+05  -1.0 2.76e+06    -  7.73e-02 3.96e-02h  4
   3  9.0487991e+00 1.62e+00 6.50e+05  -1.0 4.25e+06    -  7.40e-02 8.45e-03h  6
   4  1.7332965e+01 1.55e+00 7.91e+05  -1.0 4.58e+06    -  7.72e-02 4.25e-02h  4
   5  2.0551952e+01 1.54e+00 7.96e+05  -1.0 7.31e+06    -  1.21e-01 8.55e-03h  6
   6  1.8674108e+02 1.28e+00 5.98e+06  -1.0 8.69e+06    -  1.09e-01 1.66e-01h  2
   7  4.2608315e+02 1.19e+00 7.41e+06  -1.0 1.67e+07    -  2.66e-01 7.41e-02h  2
   8  6.2420978e+02 1.15e+00 7.55e+06  -1.0 2.32e+07    -  1.92e-01 3.37e-02h  3
   9  9.9626515e+02 1.11e+00 7.91e+06  -1.0 3.22e+07    -  1.55e-01 3.62e-02h  3
iter    objective    inf_pr   inf_du lg(mu)  ||d||  lg(rg) alpha_du alpha_pr  ls
  10  1.3855741e+03 1.08e+00 2.24e+07  -1.0 3.42e+07    -  1.38e-01 2.81e-02h  3
  11  2.5848908e+03 3.99e+00 7.43e+08  -1.0 2.48e+07    -  1.57e-01 8.42e-02w  1
  12  2.6411262e+03 4.29e+00 3.33e+09  -1.0 3.68e+06  -4.0 5.81e-01 9.48e-02w  1
  13  2.6554608e+03 4.10e+00 3.09e+09  -1.0 2.79e+06  -3.6 2.83e-01 4.87e-02w  1
  14  1.5104747e+03 1.06e+00 3.11e+07  -1.0 2.17e+06  -4.1 1.57e-01 1.05e-02h  3
  15  1.8994606e+03 1.05e+00 5.57e+07  -1.0 6.80e+07    -  1.14e-01 1.19e-02h  4
  16  2.7263148e+03 1.04e+00 9.76e+07  -1.0 1.31e+08    -  4.62e-01 1.18e-02h  4
  17  5.0406252e+03 1.03e+00 1.41e+08  -1.0 4.47e+08    -  8.14e-02 7.67e-03h  5
  18  6.0051201e+03 1.03e+00 1.59e+08  -1.0 4.59e+08    -  3.91e-02 2.51e-03h  6
  19  6.9089563e+03 1.03e+00 1.84e+08  -1.0 4.29e+08    -  1.40e-01 2.29e-03h  6
iter    objective    inf_pr   inf_du lg(mu)  ||d||  lg(rg) alpha_du alpha_pr  ls
  20  8.6708392e+03 1.02e+00 2.45e+08  -1.0 7.62e+08    -  2.10e-02 2.34e-03h  6
  21  8.9839687e+03 1.02e+00 2.63e+08  -1.0 2.70e+08    -  1.09e-01 9.95e-04h  7
  22  1.0471825e+04 1.02e+00 4.39e+08  -1.0 6.40e+08    -  3.22e-02 2.09e-03h  6
  23  1.0060175e+04 1.02e+00 1.29e+09  -1.0 1.21e+08    -  3.90e-01 4.00e-03f  5
  24  2.8874492e+04 2.11e+00 1.89e+11  -1.0 5.53e+08    -  7.31e-03 3.70e-02w  1
  25  1.3432542e+06 4.02e+00 1.75e+11  -1.0 1.96e+09    -  1.31e-02 7.07e-02w  1
  26  1.3486950e+06 4.01e+00 1.75e+11  -1.0 3.35e+08    -  4.76e-01 1.43e-03w  1
  27  9.8930913e+03 1.02e+00 1.35e+09  -1.0 1.76e+09    -  7.31e-03 5.78e-04f  6
  28  9.7670665e+03 1.01e+00 1.41e+09  -1.0 6.66e+08    -  1.64e-02 6.40e-04f  7
  29  9.7305150e+03 1.01e+00 1.49e+09  -1.0 9.97e+08    -  6.55e-03 6.74e-04f  7
iter    objective    inf_pr   inf_du lg(mu)  ||d||  lg(rg) alpha_du alpha_pr  ls
  30  9.7661199e+03 1.01e+00 1.51e+09  -1.0 1.32e+09    -  4.87e-02 3.44e-04h  8
  31  9.8439846e+03 1.01e+00 1.53e+09  -1.0 1.54e+09    -  4.00e-03 3.43e-04h  8
  32  9.9625735e+03 1.01e+00 1.55e+09  -1.0 1.65e+09    -  1.96e-02 3.48e-04h  8
  33  1.0126135e+04 1.01e+00 1.57e+09  -1.0 1.76e+09    -  4.86e-03 3.52e-04h  8
  34  1.0323584e+04 1.01e+00 1.60e+09  -1.0 1.72e+09    -  6.44e-02 3.64e-04h  8
  35  1.0785067e+04 1.01e+00 1.69e+09  -1.0 1.59e+09    -  5.46e-03 7.58e-04h  7
  36  1.1300858e+04 1.01e+00 2.15e+09  -1.0 8.04e+08    -  5.16e-02 1.74e-03h  6
  37  4.1043635e+05 2.55e+00 3.99e+11  -1.0 1.95e+09    -  5.99e-03 4.82e-02w  1
  38  2.6774233e+06 1.05e+01 3.70e+11  -1.0 2.17e+09    -  1.03e-01 7.75e-02w  1
  39  2.5063634e+06 1.02e+01 3.61e+11  -1.0 3.82e+09    -  7.14e-01 2.29e-02w  1
iter    objective    inf_pr   inf_du lg(mu)  ||d||  lg(rg) alpha_du alpha_pr  ls
  40  1.2279274e+04 1.01e+00 2.24e+09  -1.0 1.41e+08  -4.5 5.99e-03 7.52e-04h  6
  41  1.3531912e+04 1.01e+00 2.32e+09  -1.0 2.06e+09    -  4.45e-02 7.56e-04h  7
  42  1.5041411e+04 1.01e+00 2.40e+09  -1.0 2.11e+09    -  7.49e-03 7.62e-04h  7
  43  1.8820476e+04 1.01e+00 2.71e+09  -1.0 2.16e+09    -  4.18e-02 1.53e-03h  6
  44  2.3727439e+04 1.00e+00 2.99e+09  -1.0 2.24e+09    -  9.87e-03 1.53e-03h  6
  45  2.9853615e+04 1.00e+00 3.25e+09  -1.0 2.36e+09    -  3.51e-02 1.51e-03h  6
  46  3.6754561e+04 1.00e+00 3.47e+09  -1.0 2.30e+09    -  1.52e-02 1.49e-03h  6
  47  5.2918706e+04 9.99e-01 4.24e+09  -1.0 2.29e+09    -  4.14e-02 2.92e-03h  5
  48  7.2165192e+04 9.96e-01 4.75e+09  -1.0 2.42e+09    -  2.04e-02 2.70e-03h  5
  49  1.1707061e+05 9.91e-01 5.69e+09  -1.0 2.52e+09    -  5.76e-02 4.84e-03h  4
iter    objective    inf_pr   inf_du lg(mu)  ||d||  lg(rg) alpha_du alpha_pr  ls
  50  6.1901039e+05 4.02e+00 3.89e+11  -1.0 2.75e+09    -  2.63e-02 2.63e-02w  1
  51  2.1276241e+07 2.98e+01 3.40e+11  -1.0 5.51e+09    -  6.40e-02 1.17e-01w  1
  52  2.1606683e+07 2.94e+01 3.36e+11  -1.0 5.57e+09    -  6.34e-01 1.38e-02w  1
  53  2.0413351e+05 9.85e-01 1.89e+09  -1.0 1.42e+09    -  2.63e-02 6.57e-03h  2
  54  2.0383169e+05 9.70e-01 8.27e+09  -1.0 1.23e+08  -5.0 9.06e-01 1.49e-02f  3
  55  2.0421885e+05 9.48e-01 5.04e+09  -1.0 4.87e+07  -3.7 3.33e-01 2.24e-02h  3
  56  2.0379613e+05 9.48e-01 8.99e+10  -1.0 3.48e+09  -3.3 5.67e-03 3.51e-04f  3
  57  2.0406507e+05 9.36e-01 8.84e+10  -1.0 4.41e+07  -3.7 9.88e-01 1.29e-02h  4
  58  2.0435166e+05 9.11e-01 7.99e+10  -1.0 4.29e+07  -4.2 3.36e-01 2.65e-02h  3
  59  2.0332264e+05 8.85e-01 7.50e+10  -1.0 3.85e+07  -4.7 9.86e-01 2.81e-02f  3
iter    objective    inf_pr   inf_du lg(mu)  ||d||  lg(rg) alpha_du alpha_pr  ls
  60  2.0299239e+05 8.84e-01 7.49e+10  -1.0 6.81e+07  -5.2 4.02e-01 1.59e-03f  7
  61  1.8848030e+05 8.71e-01 7.38e+10  -1.0 2.07e+08  -5.6 9.71e-01 1.50e-02f  4
  62  1.8826108e+05 8.70e-01 7.37e+10  -1.0 7.00e+07  -5.2 4.31e-01 1.03e-03f  7
  63  7.8074874e+04 4.00e+00 7.24e+10  -1.0 2.49e+08  -5.7 1.00e+00 1.16e-01w  1
  64  9.6618195e+02 3.96e+00 7.35e+10  -1.0 3.24e+09  -6.2 2.16e-01 1.15e-02w  1
  65  9.1334790e+02 3.72e+00 9.40e+10  -1.0 1.46e+06  -3.0 5.01e-01 1.50e-01w  1
  66  1.8396584e+05 8.67e-01 7.34e+10  -1.0 8.47e+06  -3.5 1.00e+00 3.61e-03f  5
  67  1.8410860e+05 8.53e-01 7.08e+10  -1.0 3.89e+07  -4.0 3.55e-01 1.56e-02h  4
  68  1.8255515e+05 3.32e+00 5.74e+10  -1.0 3.65e+07  -4.5 9.50e-01 1.29e-01f  1
  69  1.6787103e+05 3.11e+00 5.48e+10  -1.0 7.90e+07  -4.9 5.13e-01 6.35e-02f  1
iter    objective    inf_pr   inf_du lg(mu)  ||d||  lg(rg) alpha_du alpha_pr  ls
  70  4.4718657e+04 3.29e+00 4.35e+12  -1.0 2.40e+08  -5.4 6.82e-03 1.44e-01f  1
  71  5.2955134e+04 3.29e+00 4.34e+12  -1.0 6.98e+09  -5.9 1.47e-03 3.44e-04h  2
  72  1.1102218e+03 3.20e+00 3.85e+12  -1.0 1.02e+09    -  3.53e-02 2.81e-02f  1
  73  1.0623625e+03 3.83e+00 1.22e+12  -1.0 2.86e+07    -  1.55e-03 7.91e-02f  1
  74  1.0743646e+03 3.81e+00 1.26e+12  -1.0 5.53e+06  -1.0 5.11e-02 9.37e-03h  1
  75  1.0753888e+03 3.80e+00 1.26e+12  -1.0 1.28e+07  -0.5 3.37e-02 4.63e-04h  6
  76  1.0754051e+03 3.80e+00 2.00e+12  -1.0 1.98e+06   3.5 4.18e-02 2.28e-04h  7
  77  1.0759743e+03 3.78e+00 1.74e+12  -1.0 1.97e+06   3.0 1.24e-01 7.22e-03h  2
  78  1.0762978e+03 3.76e+00 1.91e+12  -1.0 1.72e+06   2.6 1.55e-01 4.18e-03h  2
  79  1.0765234e+03 3.75e+00 1.98e+12  -1.0 1.53e+06   2.1 1.90e-01 2.38e-03h  2
iter    objective    inf_pr   inf_du lg(mu)  ||d||  lg(rg) alpha_du alpha_pr  ls
  80r 1.0765234e+03 3.75e+00 1.00e+03   0.6 0.00e+00   1.6 0.00e+00 3.24e-07R 14
  81r 1.0765234e+03 1.21e+02 2.09e+09   0.6 1.22e+04    -  2.32e-02 2.04e-03f  1
  82r 1.0765234e+03 7.54e+00 4.53e+19   0.6 1.18e-02  13.5 9.90e-01 1.00e+00h  1
  83r 1.0765234e+03 3.54e+00 8.95e+09   0.6 3.26e-09  18.9 9.90e-01 1.00e+00h  1
  84r 1.0765234e+03 2.83e+01 7.19e+25   0.6 8.13e-01  18.4 1.98e-03 5.40e-03f  2
Scaling factors are invalid - setting them all to 1.
Scaling factors are invalid - setting them all to 1.
MA27BD returned iflag=-4 and requires more memory.
 Increase liw from 19240 to 38480 and la from 22500 to 46730 and factorize again.
Scaling factors are invalid - setting them all to 1.
Scaling factors are invalid - setting them all to 1.
Scaling factors are invalid - setting them all to 1.
Scaling factors are invalid - setting them all to 1.
Scaling factors are invalid - setting them all to 1.
Scaling factors are invalid - setting them all to 1.
Scaling factors are invalid - setting them all to 1.
Scaling factors are invalid - setting them all to 1.
Scaling factors are invalid - setting them all to 1.
Scaling factors are invalid - setting them all to 1.
Scaling factors are invalid - setting them all to 1.
Scaling factors are invalid - setting them all to 1.
Scaling factors are invalid - setting them all to 1.
Scaling factors are invalid - setting them all to 1.
Scaling factors are invalid - setting them all to 1.
WARNING: Problem in step computation; switching to emergency mode.
  85r 1.0765234e+03 2.83e+01 7.19e+25   0.6 8.13e-01  20.0 0.00e+00 0.00e+00R  1
Scaling factors are invalid - setting them all to 1.
Scaling factors are invalid - setting them all to 1.
Scaling factors are invalid - setting them all to 1.
Scaling factors are invalid - setting them all to 1.
Scaling factors are invalid - setting them all to 1.
Scaling factors are invalid - setting them all to 1.
Scaling factors are invalid - setting them all to 1.
Scaling factors are invalid - setting them all to 1.
Scaling factors are invalid - setting them all to 1.
Scaling factors are invalid - setting them all to 1.
Scaling factors are invalid - setting them all to 1.
Scaling factors are invalid - setting them all to 1.
Scaling factors are invalid - setting them all to 1.
Scaling factors are invalid - setting them all to 1.
WARNING: Problem in step computation; switching to emergency mode.
Restoration phase is called at point that is almost feasible,
  with constraint violation 0.000000e+00. Abort.
Restoration phase in the restoration phase failed.

Number of Iterations....: 85

                                   (scaled)                 (unscaled)
Objective...............:   1.0765233637210986e+03    1.0765233637210986e+03
Dual infeasibility......:   7.1924630555964012e+25    7.1924630555964012e+25
Constraint violation....:   2.8303277572749668e+01    2.8303277572749668e+01
Complementarity.........:   2.3666077586220176e+03    2.3666077586220176e+03
Overall NLP error.......:   2.6526887878290803e+14    7.1924630555964012e+25


Number of objective function evaluations             = 413
Number of objective gradient evaluations             = 82
Number of equality constraint evaluations            = 413
Number of inequality constraint evaluations          = 0
Number of equality constraint Jacobian evaluations   = 87
Number of inequality constraint Jacobian evaluations = 0
Number of Lagrangian Hessian evaluations             = 86
Total CPU secs in IPOPT (w/o function evaluations)   =      0.424
Total CPU secs in NLP function evaluations           =      4.982

EXIT: Restoration Failed!
